NAME : LKH/problem_files/LocalTSPInstance6.569183.tour
COMMENT : Length = 569183
COMMENT : Found by LKH [Keld Helsgaun] Fri Jul  2 10:45:54 2021
TYPE : TOUR
DIMENSION : 179
TOUR_SECTION
1
2
4
3
12
10
11
13
8
9
30
31
56
57
54
55
80
81
106
108
107
83
82
85
84
59
58
33
32
37
35
34
36
62
60
61
63
86
87
89
88
91
116
115
118
117
93
92
90
67
66
64
65
39
38
41
40
17
16
14
15
5
6
7
18
19
42
43
68
69
71
70
45
44
21
20
25
23
24
22
27
26
29
28
52
53
78
79
104
105
129
130
154
155
178
179
176
177
153
152
128
127
103
102
77
76
50
51
46
48
47
49
72
74
73
75
98
100
99
101
123
125
124
126
148
150
149
151
172
174
173
175
171
170
147
146
122
121
97
96
94
95
119
120
144
145
168
169
164
167
166
143
142
140
141
165
162
163
161
160
139
137
136
138
113
111
112
114
109
110
134
135
158
159
157
156
133
132
131
-1
EOF
